24
parallel benzene dimer; ring_center_spacing=2.80 A; eclipsed sandwich geometry
C   1.39700000  0.00000000 -1.40000000
C   0.69850000  1.20983749 -1.40000000
C  -0.69850000  1.20983749 -1.40000000
C  -1.39700000  0.00000000 -1.40000000
C  -0.69850000 -1.20983749 -1.40000000
C   0.69850000 -1.20983749 -1.40000000
H   2.48700000  0.00000000 -1.40000000
H   1.24350000  2.15380518 -1.40000000
H  -1.24350000  2.15380518 -1.40000000
H  -2.48700000  0.00000000 -1.40000000
H  -1.24350000 -2.15380518 -1.40000000
H   1.24350000 -2.15380518 -1.40000000
C   1.39700000  0.00000000  1.40000000
C   0.69850000  1.20983749  1.40000000
C  -0.69850000  1.20983749  1.40000000
C  -1.39700000  0.00000000  1.40000000
C  -0.69850000 -1.20983749  1.40000000
C   0.69850000 -1.20983749  1.40000000
H   2.48700000  0.00000000  1.40000000
H   1.24350000  2.15380518  1.40000000
H  -1.24350000  2.15380518  1.40000000
H  -2.48700000  0.00000000  1.40000000
H  -1.24350000 -2.15380518  1.40000000
H   1.24350000 -2.15380518  1.40000000
24
parallel benzene dimer; ring_center_spacing=3.00 A; eclipsed sandwich geometry
C   1.39700000  0.00000000 -1.50000000
C   0.69850000  1.20983749 -1.50000000
C  -0.69850000  1.20983749 -1.50000000
C  -1.39700000  0.00000000 -1.50000000
C  -0.69850000 -1.20983749 -1.50000000
C   0.69850000 -1.20983749 -1.50000000
H   2.48700000  0.00000000 -1.50000000
H   1.24350000  2.15380518 -1.50000000
H  -1.24350000  2.15380518 -1.50000000
H  -2.48700000  0.00000000 -1.50000000
H  -1.24350000 -2.15380518 -1.50000000
H   1.24350000 -2.15380518 -1.50000000
C   1.39700000  0.00000000  1.50000000
C   0.69850000  1.20983749  1.50000000
C  -0.69850000  1.20983749  1.50000000
C  -1.39700000  0.00000000  1.50000000
C  -0.69850000 -1.20983749  1.50000000
C   0.69850000 -1.20983749  1.50000000
H   2.48700000  0.00000000  1.50000000
H   1.24350000  2.15380518  1.50000000
H  -1.24350000  2.15380518  1.50000000
H  -2.48700000  0.00000000  1.50000000
H  -1.24350000 -2.15380518  1.50000000
H   1.24350000 -2.15380518  1.50000000
24
parallel benzene dimer; ring_center_spacing=3.20 A; eclipsed sandwich geometry
C   1.39700000  0.00000000 -1.60000000
C   0.69850000  1.20983749 -1.60000000
C  -0.69850000  1.20983749 -1.60000000
C  -1.39700000  0.00000000 -1.60000000
C  -0.69850000 -1.20983749 -1.60000000
C   0.69850000 -1.20983749 -1.60000000
H   2.48700000  0.00000000 -1.60000000
H   1.24350000  2.15380518 -1.60000000
H  -1.24350000  2.15380518 -1.60000000
H  -2.48700000  0.00000000 -1.60000000
H  -1.24350000 -2.15380518 -1.60000000
H   1.24350000 -2.15380518 -1.60000000
C   1.39700000  0.00000000  1.60000000
C   0.69850000  1.20983749  1.60000000
C  -0.69850000  1.20983749  1.60000000
C  -1.39700000  0.00000000  1.60000000
C  -0.69850000 -1.20983749  1.60000000
C   0.69850000 -1.20983749  1.60000000
H   2.48700000  0.00000000  1.60000000
H   1.24350000  2.15380518  1.60000000
H  -1.24350000  2.15380518  1.60000000
H  -2.48700000  0.00000000  1.60000000
H  -1.24350000 -2.15380518  1.60000000
H   1.24350000 -2.15380518  1.60000000
24
parallel benzene dimer; ring_center_spacing=3.40 A; eclipsed sandwich geometry
C   1.39700000  0.00000000 -1.70000000
C   0.69850000  1.20983749 -1.70000000
C  -0.69850000  1.20983749 -1.70000000
C  -1.39700000  0.00000000 -1.70000000
C  -0.69850000 -1.20983749 -1.70000000
C   0.69850000 -1.20983749 -1.70000000
H   2.48700000  0.00000000 -1.70000000
H   1.24350000  2.15380518 -1.70000000
H  -1.24350000  2.15380518 -1.70000000
H  -2.48700000  0.00000000 -1.70000000
H  -1.24350000 -2.15380518 -1.70000000
H   1.24350000 -2.15380518 -1.70000000
C   1.39700000  0.00000000  1.70000000
C   0.69850000  1.20983749  1.70000000
C  -0.69850000  1.20983749  1.70000000
C  -1.39700000  0.00000000  1.70000000
C  -0.69850000 -1.20983749  1.70000000
C   0.69850000 -1.20983749  1.70000000
H   2.48700000  0.00000000  1.70000000
H   1.24350000  2.15380518  1.70000000
H  -1.24350000  2.15380518  1.70000000
H  -2.48700000  0.00000000  1.70000000
H  -1.24350000 -2.15380518  1.70000000
H   1.24350000 -2.15380518  1.70000000
24
parallel benzene dimer; ring_center_spacing=3.60 A; eclipsed sandwich geometry
C   1.39700000  0.00000000 -1.80000000
C   0.69850000  1.20983749 -1.80000000
C  -0.69850000  1.20983749 -1.80000000
C  -1.39700000  0.00000000 -1.80000000
C  -0.69850000 -1.20983749 -1.80000000
C   0.69850000 -1.20983749 -1.80000000
H   2.48700000  0.00000000 -1.80000000
H   1.24350000  2.15380518 -1.80000000
H  -1.24350000  2.15380518 -1.80000000
H  -2.48700000  0.00000000 -1.80000000
H  -1.24350000 -2.15380518 -1.80000000
H   1.24350000 -2.15380518 -1.80000000
C   1.39700000  0.00000000  1.80000000
C   0.69850000  1.20983749  1.80000000
C  -0.69850000  1.20983749  1.80000000
C  -1.39700000  0.00000000  1.80000000
C  -0.69850000 -1.20983749  1.80000000
C   0.69850000 -1.20983749  1.80000000
H   2.48700000  0.00000000  1.80000000
H   1.24350000  2.15380518  1.80000000
H  -1.24350000  2.15380518  1.80000000
H  -2.48700000  0.00000000  1.80000000
H  -1.24350000 -2.15380518  1.80000000
H   1.24350000 -2.15380518  1.80000000
24
parallel benzene dimer; ring_center_spacing=3.80 A; eclipsed sandwich geometry
C   1.39700000  0.00000000 -1.90000000
C   0.69850000  1.20983749 -1.90000000
C  -0.69850000  1.20983749 -1.90000000
C  -1.39700000  0.00000000 -1.90000000
C  -0.69850000 -1.20983749 -1.90000000
C   0.69850000 -1.20983749 -1.90000000
H   2.48700000  0.00000000 -1.90000000
H   1.24350000  2.15380518 -1.90000000
H  -1.24350000  2.15380518 -1.90000000
H  -2.48700000  0.00000000 -1.90000000
H  -1.24350000 -2.15380518 -1.90000000
H   1.24350000 -2.15380518 -1.90000000
C   1.39700000  0.00000000  1.90000000
C   0.69850000  1.20983749  1.90000000
C  -0.69850000  1.20983749  1.90000000
C  -1.39700000  0.00000000  1.90000000
C  -0.69850000 -1.20983749  1.90000000
C   0.69850000 -1.20983749  1.90000000
H   2.48700000  0.00000000  1.90000000
H   1.24350000  2.15380518  1.90000000
H  -1.24350000  2.15380518  1.90000000
H  -2.48700000  0.00000000  1.90000000
H  -1.24350000 -2.15380518  1.90000000
H   1.24350000 -2.15380518  1.90000000
24
parallel benzene dimer; ring_center_spacing=4.00 A; eclipsed sandwich geometry
C   1.39700000  0.00000000 -2.00000000
C   0.69850000  1.20983749 -2.00000000
C  -0.69850000  1.20983749 -2.00000000
C  -1.39700000  0.00000000 -2.00000000
C  -0.69850000 -1.20983749 -2.00000000
C   0.69850000 -1.20983749 -2.00000000
H   2.48700000  0.00000000 -2.00000000
H   1.24350000  2.15380518 -2.00000000
H  -1.24350000  2.15380518 -2.00000000
H  -2.48700000  0.00000000 -2.00000000
H  -1.24350000 -2.15380518 -2.00000000
H   1.24350000 -2.15380518 -2.00000000
C   1.39700000  0.00000000  2.00000000
C   0.69850000  1.20983749  2.00000000
C  -0.69850000  1.20983749  2.00000000
C  -1.39700000  0.00000000  2.00000000
C  -0.69850000 -1.20983749  2.00000000
C   0.69850000 -1.20983749  2.00000000
H   2.48700000  0.00000000  2.00000000
H   1.24350000  2.15380518  2.00000000
H  -1.24350000  2.15380518  2.00000000
H  -2.48700000  0.00000000  2.00000000
H  -1.24350000 -2.15380518  2.00000000
H   1.24350000 -2.15380518  2.00000000
24
parallel benzene dimer; ring_center_spacing=4.50 A; eclipsed sandwich geometry
C   1.39700000  0.00000000 -2.25000000
C   0.69850000  1.20983749 -2.25000000
C  -0.69850000  1.20983749 -2.25000000
C  -1.39700000  0.00000000 -2.25000000
C  -0.69850000 -1.20983749 -2.25000000
C   0.69850000 -1.20983749 -2.25000000
H   2.48700000  0.00000000 -2.25000000
H   1.24350000  2.15380518 -2.25000000
H  -1.24350000  2.15380518 -2.25000000
H  -2.48700000  0.00000000 -2.25000000
H  -1.24350000 -2.15380518 -2.25000000
H   1.24350000 -2.15380518 -2.25000000
C   1.39700000  0.00000000  2.25000000
C   0.69850000  1.20983749  2.25000000
C  -0.69850000  1.20983749  2.25000000
C  -1.39700000  0.00000000  2.25000000
C  -0.69850000 -1.20983749  2.25000000
C   0.69850000 -1.20983749  2.25000000
H   2.48700000  0.00000000  2.25000000
H   1.24350000  2.15380518  2.25000000
H  -1.24350000  2.15380518  2.25000000
H  -2.48700000  0.00000000  2.25000000
H  -1.24350000 -2.15380518  2.25000000
H   1.24350000 -2.15380518  2.25000000
24
parallel benzene dimer; ring_center_spacing=5.00 A; eclipsed sandwich geometry
C   1.39700000  0.00000000 -2.50000000
C   0.69850000  1.20983749 -2.50000000
C  -0.69850000  1.20983749 -2.50000000
C  -1.39700000  0.00000000 -2.50000000
C  -0.69850000 -1.20983749 -2.50000000
C   0.69850000 -1.20983749 -2.50000000
H   2.48700000  0.00000000 -2.50000000
H   1.24350000  2.15380518 -2.50000000
H  -1.24350000  2.15380518 -2.50000000
H  -2.48700000  0.00000000 -2.50000000
H  -1.24350000 -2.15380518 -2.50000000
H   1.24350000 -2.15380518 -2.50000000
C   1.39700000  0.00000000  2.50000000
C   0.69850000  1.20983749  2.50000000
C  -0.69850000  1.20983749  2.50000000
C  -1.39700000  0.00000000  2.50000000
C  -0.69850000 -1.20983749  2.50000000
C   0.69850000 -1.20983749  2.50000000
H   2.48700000  0.00000000  2.50000000
H   1.24350000  2.15380518  2.50000000
H  -1.24350000  2.15380518  2.50000000
H  -2.48700000  0.00000000  2.50000000
H  -1.24350000 -2.15380518  2.50000000
H   1.24350000 -2.15380518  2.50000000
24
parallel benzene dimer; ring_center_spacing=6.00 A; eclipsed sandwich geometry
C   1.39700000  0.00000000 -3.00000000
C   0.69850000  1.20983749 -3.00000000
C  -0.69850000  1.20983749 -3.00000000
C  -1.39700000  0.00000000 -3.00000000
C  -0.69850000 -1.20983749 -3.00000000
C   0.69850000 -1.20983749 -3.00000000
H   2.48700000  0.00000000 -3.00000000
H   1.24350000  2.15380518 -3.00000000
H  -1.24350000  2.15380518 -3.00000000
H  -2.48700000  0.00000000 -3.00000000
H  -1.24350000 -2.15380518 -3.00000000
H   1.24350000 -2.15380518 -3.00000000
C   1.39700000  0.00000000  3.00000000
C   0.69850000  1.20983749  3.00000000
C  -0.69850000  1.20983749  3.00000000
C  -1.39700000  0.00000000  3.00000000
C  -0.69850000 -1.20983749  3.00000000
C   0.69850000 -1.20983749  3.00000000
H   2.48700000  0.00000000  3.00000000
H   1.24350000  2.15380518  3.00000000
H  -1.24350000  2.15380518  3.00000000
H  -2.48700000  0.00000000  3.00000000
H  -1.24350000 -2.15380518  3.00000000
H   1.24350000 -2.15380518  3.00000000
