24
parallel benzene dimer; ring_center_spacing=3.80 A; eclipsed sandwich geometry
C   1.39700000  0.00000000 -1.90000000
C   0.69850000  1.20983749 -1.90000000
C  -0.69850000  1.20983749 -1.90000000
C  -1.39700000  0.00000000 -1.90000000
C  -0.69850000 -1.20983749 -1.90000000
C   0.69850000 -1.20983749 -1.90000000
H   2.48700000  0.00000000 -1.90000000
H   1.24350000  2.15380518 -1.90000000
H  -1.24350000  2.15380518 -1.90000000
H  -2.48700000  0.00000000 -1.90000000
H  -1.24350000 -2.15380518 -1.90000000
H   1.24350000 -2.15380518 -1.90000000
C   1.39700000  0.00000000  1.90000000
C   0.69850000  1.20983749  1.90000000
C  -0.69850000  1.20983749  1.90000000
C  -1.39700000  0.00000000  1.90000000
C  -0.69850000 -1.20983749  1.90000000
C   0.69850000 -1.20983749  1.90000000
H   2.48700000  0.00000000  1.90000000
H   1.24350000  2.15380518  1.90000000
H  -1.24350000  2.15380518  1.90000000
H  -2.48700000  0.00000000  1.90000000
H  -1.24350000 -2.15380518  1.90000000
H   1.24350000 -2.15380518  1.90000000
